clingo version 5.5.1
Reading from ./22/N022.lp ...
Reading      : 0.022
Preprocessing: 0.000
Solving...
Answer: 1
init(object(node,1),value(at,(1,1))). init(object(node,2),value(at,(2,1))). init(object(node,3),value(at,(3,1))). init(object(node,4),value(at,(7,1))). init(object(node,5),value(at,(8,1))). init(object(node,6),value(at,(9,1))). init(object(node,7),value(at,(13,1))). init(object(node,8),value(at,(14,1))). init(object(node,9),value(at,(15,1))). init(object(node,10),value(at,(19,1))). init(object(node,11),value(at,(20,1))). init(object(node,12),value(at,(21,1))). init(object(node,13),value(at,(2,2))). init(object(node,14),value(at,(8,2))). init(object(node,15),value(at,(14,2))). init(object(node,16),value(at,(20,2))). init(object(node,17),value(at,(2,3))). init(object(node,18),value(at,(3,3))). init(object(node,19),value(at,(4,3))). init(object(node,20),value(at,(5,3))). init(object(node,21),value(at,(6,3))). init(object(node,22),value(at,(7,3))). init(object(node,23),value(at,(8,3))). init(object(node,24),value(at,(14,3))). init(object(node,25),value(at,(15,3))). init(object(node,26),value(at,(16,3))). init(object(node,27),value(at,(17,3))). init(object(node,28),value(at,(18,3))). init(object(node,29),value(at,(19,3))). init(object(node,30),value(at,(20,3))). init(object(node,31),value(at,(2,4))). init(object(node,32),value(at,(5,4))). init(object(node,33),value(at,(8,4))). init(object(node,34),value(at,(14,4))). init(object(node,35),value(at,(17,4))). init(object(node,36),value(at,(20,4))). init(object(node,37),value(at,(1,5))). init(object(node,38),value(at,(2,5))). init(object(node,39),value(at,(3,5))). init(object(node,40),value(at,(5,5))). init(object(node,41),value(at,(7,5))). init(object(node,42),value(at,(8,5))). init(object(node,43),value(at,(9,5))). init(object(node,44),value(at,(13,5))). init(object(node,45),value(at,(14,5))). init(object(node,46),value(at,(15,5))). init(object(node,47),value(at,(17,5))). init(object(node,48),value(at,(19,5))). init(object(node,49),value(at,(20,5))). init(object(node,50),value(at,(21,5))). init(object(node,51),value(at,(5,6))). init(object(node,52),value(at,(17,6))). init(object(node,53),value(at,(5,7))). init(object(node,54),value(at,(6,7))). init(object(node,55),value(at,(7,7))). init(object(node,56),value(at,(8,7))). init(object(node,57),value(at,(9,7))). init(object(node,58),value(at,(10,7))). init(object(node,59),value(at,(11,7))). init(object(node,60),value(at,(12,7))). init(object(node,61),value(at,(13,7))). init(object(node,62),value(at,(14,7))). init(object(node,63),value(at,(15,7))). init(object(node,64),value(at,(16,7))). init(object(node,65),value(at,(17,7))). init(object(node,66),value(at,(5,8))). init(object(node,67),value(at,(11,8))). init(object(node,68),value(at,(17,8))). init(object(node,69),value(at,(1,9))). init(object(node,70),value(at,(2,9))). init(object(node,71),value(at,(3,9))). init(object(node,72),value(at,(5,9))). init(object(node,73),value(at,(7,9))). init(object(node,74),value(at,(8,9))). init(object(node,75),value(at,(9,9))). init(object(node,76),value(at,(11,9))). init(object(node,77),value(at,(13,9))). init(object(node,78),value(at,(14,9))). init(object(node,79),value(at,(15,9))). init(object(node,80),value(at,(17,9))). init(object(node,81),value(at,(19,9))). init(object(node,82),value(at,(20,9))). init(object(node,83),value(at,(21,9))). init(object(node,84),value(at,(2,10))). init(object(node,85),value(at,(5,10))). init(object(node,86),value(at,(8,10))). init(object(node,87),value(at,(11,10))). init(object(node,88),value(at,(14,10))). init(object(node,89),value(at,(17,10))). init(object(node,90),value(at,(20,10))). init(object(node,91),value(at,(2,11))). init(object(node,92),value(at,(3,11))). init(object(node,93),value(at,(4,11))). init(object(node,94),value(at,(5,11))). init(object(node,95),value(at,(6,11))). init(object(node,96),value(at,(7,11))). init(object(node,97),value(at,(8,11))). init(object(node,98),value(at,(11,11))). init(object(node,99),value(at,(14,11))). init(object(node,100),value(at,(15,11))). init(object(node,101),value(at,(16,11))). init(object(node,102),value(at,(17,11))). init(object(node,103),value(at,(18,11))). init(object(node,104),value(at,(19,11))). init(object(node,105),value(at,(20,11))). init(object(node,106),value(at,(2,12))). init(object(node,107),value(at,(8,12))). init(object(node,108),value(at,(11,12))). init(object(node,109),value(at,(14,12))). init(object(node,110),value(at,(20,12))). init(object(node,111),value(at,(1,13))). init(object(node,112),value(at,(2,13))). init(object(node,113),value(at,(3,13))). init(object(node,114),value(at,(7,13))). init(object(node,115),value(at,(8,13))). init(object(node,116),value(at,(9,13))). init(object(node,117),value(at,(11,13))). init(object(node,118),value(at,(13,13))). init(object(node,119),value(at,(14,13))). init(object(node,120),value(at,(15,13))). init(object(node,121),value(at,(19,13))). init(object(node,122),value(at,(20,13))). init(object(node,123),value(at,(21,13))). init(object(node,124),value(at,(11,14))). init(object(node,125),value(at,(1,15))). init(object(node,126),value(at,(2,15))). init(object(node,127),value(at,(3,15))). init(object(node,128),value(at,(4,15))). init(object(node,129),value(at,(5,15))). init(object(node,130),value(at,(6,15))). init(object(node,131),value(at,(7,15))). init(object(node,132),value(at,(8,15))). init(object(node,133),value(at,(9,15))). init(object(node,134),value(at,(10,15))). init(object(node,135),value(at,(11,15))). init(object(node,136),value(at,(12,15))). init(object(node,137),value(at,(13,15))). init(object(node,138),value(at,(14,15))). init(object(node,139),value(at,(15,15))). init(object(node,140),value(at,(16,15))). init(object(node,141),value(at,(17,15))). init(object(node,142),value(at,(18,15))). init(object(node,143),value(at,(19,15))). init(object(node,144),value(at,(20,15))). init(object(node,145),value(at,(21,15))). init(object(node,146),value(at,(1,16))). init(object(node,147),value(at,(2,16))). init(object(node,148),value(at,(3,16))). init(object(node,149),value(at,(4,16))). init(object(node,150),value(at,(5,16))). init(object(node,151),value(at,(6,16))). init(object(node,152),value(at,(7,16))). init(object(node,153),value(at,(8,16))). init(object(node,154),value(at,(9,16))). init(object(node,155),value(at,(10,16))). init(object(node,156),value(at,(11,16))). init(object(node,157),value(at,(12,16))). init(object(node,158),value(at,(13,16))). init(object(node,159),value(at,(14,16))). init(object(node,160),value(at,(15,16))). init(object(node,161),value(at,(16,16))). init(object(node,162),value(at,(17,16))). init(object(node,163),value(at,(18,16))). init(object(node,164),value(at,(19,16))). init(object(node,165),value(at,(20,16))). init(object(node,166),value(at,(21,16))). init(object(node,167),value(at,(1,17))). init(object(node,168),value(at,(2,17))). init(object(node,169),value(at,(3,17))). init(object(node,170),value(at,(4,17))). init(object(node,171),value(at,(5,17))). init(object(node,172),value(at,(6,17))). init(object(node,173),value(at,(7,17))). init(object(node,174),value(at,(8,17))). init(object(node,175),value(at,(9,17))). init(object(node,176),value(at,(10,17))). init(object(node,177),value(at,(11,17))). init(object(node,178),value(at,(12,17))). init(object(node,179),value(at,(13,17))). init(object(node,180),value(at,(14,17))). init(object(node,181),value(at,(15,17))). init(object(node,182),value(at,(16,17))). init(object(node,183),value(at,(17,17))). init(object(node,184),value(at,(18,17))). init(object(node,185),value(at,(19,17))). init(object(node,186),value(at,(20,17))). init(object(node,187),value(at,(21,17))). init(object(robot,1),value(at,(1,1))). init(object(robot,2),value(at,(3,1))). init(object(robot,5),value(at,(7,1))). init(object(robot,6),value(at,(9,1))). init(object(robot,17),value(at,(13,1))). init(object(robot,18),value(at,(15,1))). init(object(robot,21),value(at,(19,1))). init(object(robot,22),value(at,(21,1))). init(object(robot,3),value(at,(1,5))). init(object(robot,4),value(at,(3,5))). init(object(robot,7),value(at,(7,5))). init(object(robot,8),value(at,(9,5))). init(object(robot,19),value(at,(13,5))). init(object(robot,20),value(at,(15,5))). init(object(robot,23),value(at,(19,5))). init(object(robot,24),value(at,(21,5))). init(object(robot,9),value(at,(1,9))). init(object(robot,10),value(at,(3,9))). init(object(robot,13),value(at,(7,9))). init(object(robot,14),value(at,(9,9))). init(object(robot,25),value(at,(13,9))). init(object(robot,26),value(at,(15,9))). init(object(robot,29),value(at,(19,9))). init(object(robot,30),value(at,(21,9))). init(object(robot,11),value(at,(1,13))). init(object(robot,12),value(at,(3,13))). init(object(robot,15),value(at,(7,13))). init(object(robot,16),value(at,(9,13))). init(object(robot,27),value(at,(13,13))). init(object(robot,28),value(at,(15,13))). init(object(robot,31),value(at,(19,13))). init(object(robot,32),value(at,(21,13))). init(object(shelf,1),value(at,(1,16))). init(object(shelf,2),value(at,(2,16))). init(object(shelf,3),value(at,(3,16))). init(object(shelf,4),value(at,(4,16))). init(object(shelf,5),value(at,(5,16))). init(object(shelf,6),value(at,(6,16))). init(object(shelf,7),value(at,(7,16))). init(object(shelf,8),value(at,(8,16))). init(object(shelf,9),value(at,(9,16))). init(object(shelf,10),value(at,(10,16))). init(object(shelf,11),value(at,(11,16))). init(object(shelf,12),value(at,(12,16))). init(object(shelf,13),value(at,(13,16))). init(object(shelf,14),value(at,(14,16))). init(object(shelf,15),value(at,(15,16))). init(object(shelf,16),value(at,(16,16))). init(object(shelf,17),value(at,(17,16))). init(object(shelf,18),value(at,(18,16))). init(object(shelf,19),value(at,(19,16))). init(object(shelf,20),value(at,(20,16))). init(object(shelf,21),value(at,(21,16))). init(object(shelf,22),value(at,(6,17))). init(object(shelf,23),value(at,(7,17))). init(object(shelf,24),value(at,(8,17))). init(object(shelf,25),value(at,(9,17))). init(object(shelf,26),value(at,(10,17))). init(object(shelf,27),value(at,(11,17))). init(object(shelf,28),value(at,(12,17))). init(object(shelf,29),value(at,(13,17))). init(object(shelf,30),value(at,(14,17))). init(object(shelf,31),value(at,(15,17))). init(object(shelf,32),value(at,(16,17))). init(object(product,1),value(on,(1,1))). init(object(product,2),value(on,(2,1))). init(object(product,3),value(on,(3,1))). init(object(product,4),value(on,(4,1))). init(object(product,5),value(on,(5,1))). init(object(product,6),value(on,(6,1))). init(object(product,7),value(on,(7,1))). init(object(product,8),value(on,(8,1))). init(object(product,9),value(on,(9,1))). init(object(product,10),value(on,(10,1))). init(object(product,11),value(on,(11,1))). init(object(product,12),value(on,(12,1))). init(object(product,13),value(on,(13,1))). init(object(product,14),value(on,(14,1))). init(object(product,15),value(on,(15,1))). init(object(product,16),value(on,(16,1))). init(object(product,17),value(on,(17,1))). init(object(product,18),value(on,(18,1))). init(object(product,19),value(on,(19,1))). init(object(product,20),value(on,(20,1))). init(object(product,21),value(on,(21,1))). init(object(product,22),value(on,(22,1))). init(object(product,23),value(on,(23,1))). init(object(product,24),value(on,(24,1))). init(object(product,25),value(on,(25,1))). init(object(product,26),value(on,(26,1))). init(object(product,27),value(on,(27,1))). init(object(product,28),value(on,(28,1))). init(object(product,29),value(on,(29,1))). init(object(product,30),value(on,(30,1))). init(object(product,31),value(on,(31,1))). init(object(product,32),value(on,(32,1))). init(object(order,1),value(line,(1,1))). init(object(order,2),value(line,(2,1))). init(object(order,3),value(line,(3,1))). init(object(order,4),value(line,(4,1))). init(object(order,5),value(line,(5,1))). init(object(order,6),value(line,(6,1))). init(object(order,7),value(line,(7,1))). init(object(order,8),value(line,(8,1))). init(object(order,9),value(line,(9,1))). init(object(order,10),value(line,(10,1))). init(object(order,11),value(line,(11,1))). init(object(order,12),value(line,(12,1))). init(object(order,13),value(line,(13,1))). init(object(order,14),value(line,(14,1))). init(object(order,15),value(line,(15,1))). init(object(order,16),value(line,(16,1))). init(object(order,17),value(line,(17,1))). init(object(order,18),value(line,(18,1))). init(object(order,19),value(line,(19,1))). init(object(order,20),value(line,(20,1))). init(object(order,21),value(line,(21,1))). init(object(order,22),value(line,(22,1))). init(object(order,23),value(line,(23,1))). init(object(order,24),value(line,(24,1))). init(object(order,25),value(line,(25,1))). init(object(order,26),value(line,(26,1))). init(object(order,27),value(line,(27,1))). init(object(order,28),value(line,(28,1))). init(object(order,29),value(line,(29,1))). init(object(order,30),value(line,(30,1))). init(object(order,31),value(line,(31,1))). init(object(order,32),value(line,(32,1))). pos(1,1). pos(2,1). pos(3,1). pos(7,1). pos(8,1). pos(9,1). pos(13,1). pos(14,1). pos(15,1). pos(19,1). pos(20,1). pos(21,1). pos(2,2). pos(8,2). pos(14,2). pos(20,2). pos(2,3). pos(3,3). pos(4,3). pos(5,3). pos(6,3). pos(7,3). pos(8,3). pos(14,3). pos(15,3). pos(16,3). pos(17,3). pos(18,3). pos(19,3). pos(20,3). pos(2,4). pos(5,4). pos(8,4). pos(14,4). pos(17,4). pos(20,4). pos(1,5). pos(2,5). pos(3,5). pos(5,5). pos(7,5). pos(8,5). pos(9,5). pos(13,5). pos(14,5). pos(15,5). pos(17,5). pos(19,5). pos(20,5). pos(21,5). pos(5,6). pos(17,6). pos(5,7). pos(6,7). pos(7,7). pos(8,7). pos(9,7). pos(10,7). pos(11,7). pos(12,7). pos(13,7). pos(14,7). pos(15,7). pos(16,7). pos(17,7). pos(5,8). pos(11,8). pos(17,8). pos(1,9). pos(2,9). pos(3,9). pos(5,9). pos(7,9). pos(8,9). pos(9,9). pos(11,9). pos(13,9). pos(14,9). pos(15,9). pos(17,9). pos(19,9). pos(20,9). pos(21,9). pos(2,10). pos(5,10). pos(8,10). pos(11,10). pos(14,10). pos(17,10). pos(20,10). pos(2,11). pos(3,11). pos(4,11). pos(5,11). pos(6,11). pos(7,11). pos(8,11). pos(11,11). pos(14,11). pos(15,11). pos(16,11). pos(17,11). pos(18,11). pos(19,11). pos(20,11). pos(2,12). pos(8,12). pos(11,12). pos(14,12). pos(20,12). pos(1,13). pos(2,13). pos(3,13). pos(7,13). pos(8,13). pos(9,13). pos(11,13). pos(13,13). pos(14,13). pos(15,13). pos(19,13). pos(20,13). pos(21,13). pos(11,14). pos(1,15). pos(2,15). pos(3,15). pos(4,15). pos(5,15). pos(6,15). pos(7,15). pos(8,15). pos(9,15). pos(10,15). pos(11,15). pos(12,15). pos(13,15). pos(14,15). pos(15,15). pos(16,15). pos(17,15). pos(18,15). pos(19,15). pos(20,15). pos(21,15). pos(1,16). pos(2,16). pos(3,16). pos(4,16). pos(5,16). pos(6,16). pos(7,16). pos(8,16). pos(9,16). pos(10,16). pos(11,16). pos(12,16). pos(13,16). pos(14,16). pos(15,16). pos(16,16). pos(17,16). pos(18,16). pos(19,16). pos(20,16). pos(21,16). pos(1,17). pos(2,17). pos(3,17). pos(4,17). pos(5,17). pos(6,17). pos(7,17). pos(8,17). pos(9,17). pos(10,17). pos(11,17). pos(12,17). pos(13,17). pos(14,17). pos(15,17). pos(16,17). pos(17,17). pos(18,17). pos(19,17). pos(20,17). pos(21,17). maxx(21,0). maxy(357,0). points(1,0). points(2,0). points(3,0). points(7,0). points(8,0). points(9,0). points(13,0). points(14,0). points(15,0). points(19,0). points(20,0). points(21,0). points(23,0). points(29,0). points(35,0). points(41,0). points(44,0). points(45,0). points(46,0). points(47,0). points(48,0). points(49,0). points(50,0). points(56,0). points(57,0). points(58,0). points(59,0). points(60,0). points(61,0). points(62,0). points(65,0). points(68,0). points(71,0). points(77,0). points(80,0). points(83,0). points(85,0). points(86,0). points(87,0). points(89,0). points(91,0). points(92,0). points(93,0). points(97,0). points(98,0). points(99,0). points(101,0). points(103,0). points(104,0). points(105,0). points(110,0). points(122,0). points(131,0). points(132,0). points(133,0). points(134,0). points(135,0). points(136,0). points(137,0). points(138,0). points(139,0). points(140,0). points(141,0). points(142,0). points(143,0). points(152,0). points(158,0). points(164,0). points(169,0). points(170,0). points(171,0). points(173,0). points(175,0). points(176,0). points(177,0). points(179,0). points(181,0). points(182,0). points(183,0). points(185,0). points(187,0). points(188,0). points(189,0). points(191,0). points(194,0). points(197,0). points(200,0). points(203,0). points(206,0). points(209,0). points(212,0). points(213,0). points(214,0). points(215,0). points(216,0). points(217,0). points(218,0). points(221,0). points(224,0). points(225,0). points(226,0). points(227,0). points(228,0). points(229,0). points(230,0). points(233,0). points(239,0). points(242,0). points(245,0). points(251,0). points(253,0). points(254,0). points(255,0). points(259,0). points(260,0). points(261,0). points(263,0). points(265,0). points(266,0). points(267,0). points(271,0). points(272,0). points(273,0). points(284,0). points(295,0). points(296,0). points(297,0). points(298,0). points(299,0). points(300,0). points(301,0). points(302,0). points(303,0). points(304,0). points(305,0). points(306,0). points(307,0). points(308,0). points(309,0). points(310,0). points(311,0). points(312,0). points(313,0). points(314,0). points(315,0). points(316,0). points(317,0). points(318,0). points(319,0). points(320,0). points(321,0). points(322,0). points(323,0). points(324,0). points(325,0). points(326,0). points(327,0). points(328,0). points(329,0). points(330,0). points(331,0). points(332,0). points(333,0). points(334,0). points(335,0). points(336,0). points(337,0). points(338,0). points(339,0). points(340,0). points(341,0). points(342,0). points(343,0). points(344,0). points(345,0). points(346,0). points(347,0). points(348,0). points(349,0). points(350,0). points(351,0). points(352,0). points(353,0). points(354,0). points(355,0). points(356,0). points(357,0). edg(1,2,0). edg(2,3,0). edg(7,8,0). edg(8,9,0). edg(13,14,0). edg(14,15,0). edg(19,20,0). edg(20,21,0). edg(44,45,0). edg(45,46,0). edg(46,47,0). edg(47,48,0). edg(48,49,0). edg(49,50,0). edg(56,57,0). edg(57,58,0). edg(58,59,0). edg(59,60,0). edg(60,61,0). edg(61,62,0). edg(85,86,0). edg(86,87,0). edg(91,92,0). edg(92,93,0). edg(97,98,0). edg(98,99,0). edg(103,104,0). edg(104,105,0). edg(131,132,0). edg(132,133,0). edg(133,134,0). edg(134,135,0). edg(135,136,0). edg(136,137,0). edg(137,138,0). edg(138,139,0). edg(139,140,0). edg(140,141,0). edg(141,142,0). edg(142,143,0). edg(169,170,0). edg(170,171,0). edg(175,176,0). edg(176,177,0). edg(181,182,0). edg(182,183,0). edg(187,188,0). edg(188,189,0). edg(212,213,0). edg(213,214,0). edg(214,215,0). edg(215,216,0). edg(216,217,0). edg(217,218,0). edg(224,225,0). edg(225,226,0). edg(226,227,0). edg(227,228,0). edg(228,229,0). edg(229,230,0). edg(253,254,0). edg(254,255,0). edg(259,260,0). edg(260,261,0). edg(265,266,0). edg(266,267,0). edg(271,272,0). edg(272,273,0). edg(295,296,0). edg(296,297,0). edg(297,298,0). edg(298,299,0). edg(299,300,0). edg(300,301,0). edg(301,302,0). edg(302,303,0). edg(303,304,0). edg(304,305,0). edg(305,306,0). edg(306,307,0). edg(307,308,0). edg(308,309,0). edg(309,310,0). edg(310,311,0). edg(311,312,0). edg(312,313,0). edg(313,314,0). edg(314,315,0). edg(316,317,0). edg(317,318,0). edg(318,319,0). edg(319,320,0). edg(320,321,0). edg(321,322,0). edg(322,323,0). edg(323,324,0). edg(324,325,0). edg(325,326,0). edg(326,327,0). edg(327,328,0). edg(328,329,0). edg(329,330,0). edg(330,331,0). edg(331,332,0). edg(332,333,0). edg(333,334,0). edg(334,335,0). edg(335,336,0). edg(337,338,0). edg(338,339,0). edg(339,340,0). edg(340,341,0). edg(341,342,0). edg(342,343,0). edg(343,344,0). edg(344,345,0). edg(345,346,0). edg(346,347,0). edg(347,348,0). edg(348,349,0). edg(349,350,0). edg(350,351,0). edg(351,352,0). edg(352,353,0). edg(353,354,0). edg(354,355,0). edg(355,356,0). edg(356,357,0). edg(2,23,0). edg(8,29,0). edg(14,35,0). edg(20,41,0). edg(23,44,0). edg(29,50,0). edg(35,56,0). edg(41,62,0). edg(44,65,0). edg(47,68,0). edg(50,71,0). edg(56,77,0). edg(59,80,0). edg(62,83,0). edg(65,86,0). edg(68,89,0). edg(71,92,0). edg(77,98,0). edg(80,101,0). edg(83,104,0). edg(89,110,0). edg(101,122,0). edg(110,131,0). edg(122,143,0). edg(131,152,0). edg(137,158,0). edg(143,164,0). edg(152,173,0). edg(158,179,0). edg(164,185,0). edg(170,191,0). edg(173,194,0). edg(176,197,0). edg(179,200,0). edg(182,203,0). edg(185,206,0). edg(188,209,0). edg(191,212,0). edg(194,215,0). edg(197,218,0). edg(200,221,0). edg(203,224,0). edg(206,227,0). edg(209,230,0). edg(212,233,0). edg(218,239,0). edg(221,242,0). edg(224,245,0). edg(230,251,0). edg(233,254,0). edg(239,260,0). edg(242,263,0). edg(245,266,0). edg(251,272,0). edg(263,284,0). edg(284,305,0). edg(295,316,0). edg(296,317,0). edg(297,318,0). edg(298,319,0). edg(299,320,0). edg(300,321,0). edg(301,322,0). edg(302,323,0). edg(303,324,0). edg(304,325,0). edg(305,326,0). edg(306,327,0). edg(307,328,0). edg(308,329,0). edg(309,330,0). edg(310,331,0). edg(311,332,0). edg(312,333,0). edg(313,334,0). edg(314,335,0). edg(315,336,0). edg(316,337,0). edg(317,338,0). edg(318,339,0). edg(319,340,0). edg(320,341,0). edg(321,342,0). edg(322,343,0). edg(323,344,0). edg(324,345,0). edg(325,346,0). edg(326,347,0). edg(327,348,0). edg(328,349,0). edg(329,350,0). edg(330,351,0). edg(331,352,0). edg(332,353,0). edg(333,354,0). edg(334,355,0). edg(335,356,0). edg(336,357,0). edg(2,1,0). edg(3,2,0). edg(8,7,0). edg(9,8,0). edg(14,13,0). edg(15,14,0). edg(20,19,0). edg(21,20,0). edg(45,44,0). edg(46,45,0). edg(47,46,0). edg(48,47,0). edg(49,48,0). edg(50,49,0). edg(57,56,0). edg(58,57,0). edg(59,58,0). edg(60,59,0). edg(61,60,0). edg(62,61,0). edg(86,85,0). edg(87,86,0). edg(92,91,0). edg(93,92,0). edg(98,97,0). edg(99,98,0). edg(104,103,0). edg(105,104,0). edg(132,131,0). edg(133,132,0). edg(134,133,0). edg(135,134,0). edg(136,135,0). edg(137,136,0). edg(138,137,0). edg(139,138,0). edg(140,139,0). edg(141,140,0). edg(142,141,0). edg(143,142,0). edg(170,169,0). edg(171,170,0). edg(176,175,0). edg(177,176,0). edg(182,181,0). edg(183,182,0). edg(188,187,0). edg(189,188,0). edg(213,212,0). edg(214,213,0). edg(215,214,0). edg(216,215,0). edg(217,216,0). edg(218,217,0). edg(225,224,0). edg(226,225,0). edg(227,226,0). edg(228,227,0). edg(229,228,0). edg(230,229,0). edg(254,253,0). edg(255,254,0). edg(260,259,0). edg(261,260,0). edg(266,265,0). edg(267,266,0). edg(272,271,0). edg(273,272,0). edg(296,295,0). edg(297,296,0). edg(298,297,0). edg(299,298,0). edg(300,299,0). edg(301,300,0). edg(302,301,0). edg(303,302,0). edg(304,303,0). edg(305,304,0). edg(306,305,0). edg(307,306,0). edg(308,307,0). edg(309,308,0). edg(310,309,0). edg(311,310,0). edg(312,311,0). edg(313,312,0). edg(314,313,0). edg(315,314,0). edg(317,316,0). edg(318,317,0). edg(319,318,0). edg(320,319,0). edg(321,320,0). edg(322,321,0). edg(323,322,0). edg(324,323,0). edg(325,324,0). edg(326,325,0). edg(327,326,0). edg(328,327,0). edg(329,328,0). edg(330,329,0). edg(331,330,0). edg(332,331,0). edg(333,332,0). edg(334,333,0). edg(335,334,0). edg(336,335,0). edg(338,337,0). edg(339,338,0). edg(340,339,0). edg(341,340,0). edg(342,341,0). edg(343,342,0). edg(344,343,0). edg(345,344,0). edg(346,345,0). edg(347,346,0). edg(348,347,0). edg(349,348,0). edg(350,349,0). edg(351,350,0). edg(352,351,0). edg(353,352,0). edg(354,353,0). edg(355,354,0). edg(356,355,0). edg(357,356,0). edg(23,2,0). edg(29,8,0). edg(35,14,0). edg(41,20,0). edg(44,23,0). edg(50,29,0). edg(56,35,0). edg(62,41,0). edg(65,44,0). edg(68,47,0). edg(71,50,0). edg(77,56,0). edg(80,59,0). edg(83,62,0). edg(86,65,0). edg(89,68,0). edg(92,71,0). edg(98,77,0). edg(101,80,0). edg(104,83,0). edg(110,89,0). edg(122,101,0). edg(131,110,0). edg(143,122,0). edg(152,131,0). edg(158,137,0). edg(164,143,0). edg(173,152,0). edg(179,158,0). edg(185,164,0). edg(191,170,0). edg(194,173,0). edg(197,176,0). edg(200,179,0). edg(203,182,0). edg(206,185,0). edg(209,188,0). edg(212,191,0). edg(215,194,0). edg(218,197,0). edg(221,200,0). edg(224,203,0). edg(227,206,0). edg(230,209,0). edg(233,212,0). edg(239,218,0). edg(242,221,0). edg(245,224,0). edg(251,230,0). edg(254,233,0). edg(260,239,0). edg(263,242,0). edg(266,245,0). edg(272,251,0). edg(284,263,0). edg(305,284,0). edg(316,295,0). edg(317,296,0). edg(318,297,0). edg(319,298,0). edg(320,299,0). edg(321,300,0). edg(322,301,0). edg(323,302,0). edg(324,303,0). edg(325,304,0). edg(326,305,0). edg(327,306,0). edg(328,307,0). edg(329,308,0). edg(330,309,0). edg(331,310,0). edg(332,311,0). edg(333,312,0). edg(334,313,0). edg(335,314,0). edg(336,315,0). edg(337,316,0). edg(338,317,0). edg(339,318,0). edg(340,319,0). edg(341,320,0). edg(342,321,0). edg(343,322,0). edg(344,323,0). edg(345,324,0). edg(346,325,0). edg(347,326,0). edg(348,327,0). edg(349,328,0). edg(350,329,0). edg(351,330,0). edg(352,331,0). edg(353,332,0). edg(354,333,0). edg(355,334,0). edg(356,335,0). edg(357,336,0). edg(295,317,0). edg(296,318,0). edg(297,319,0). edg(298,320,0). edg(299,321,0). edg(300,322,0). edg(301,323,0). edg(302,324,0). edg(303,325,0). edg(304,326,0). edg(305,327,0). edg(306,328,0). edg(307,329,0). edg(308,330,0). edg(309,331,0). edg(310,332,0). edg(311,333,0). edg(312,334,0). edg(313,335,0). edg(314,336,0). edg(316,338,0). edg(317,339,0). edg(318,340,0). edg(319,341,0). edg(320,342,0). edg(321,343,0). edg(322,344,0). edg(323,345,0). edg(324,346,0). edg(325,347,0). edg(326,348,0). edg(327,349,0). edg(328,350,0). edg(329,351,0). edg(330,352,0). edg(331,353,0). edg(332,354,0). edg(333,355,0). edg(334,356,0). edg(335,357,0). edg(317,295,0). edg(318,296,0). edg(319,297,0). edg(320,298,0). edg(321,299,0). edg(322,300,0). edg(323,301,0). edg(324,302,0). edg(325,303,0). edg(326,304,0). edg(327,305,0). edg(328,306,0). edg(329,307,0). edg(330,308,0). edg(331,309,0). edg(332,310,0). edg(333,311,0). edg(334,312,0). edg(335,313,0). edg(336,314,0). edg(338,316,0). edg(339,317,0). edg(340,318,0). edg(341,319,0). edg(342,320,0). edg(343,321,0). edg(344,322,0). edg(345,323,0). edg(346,324,0). edg(347,325,0). edg(348,326,0). edg(349,327,0). edg(350,328,0). edg(351,329,0). edg(352,330,0). edg(353,331,0). edg(354,332,0). edg(355,333,0). edg(356,334,0). edg(357,335,0). edg(316,296,0). edg(317,297,0). edg(318,298,0). edg(319,299,0). edg(320,300,0). edg(321,301,0). edg(322,302,0). edg(323,303,0). edg(324,304,0). edg(325,305,0). edg(326,306,0). edg(327,307,0). edg(328,308,0). edg(329,309,0). edg(330,310,0). edg(331,311,0). edg(332,312,0). edg(333,313,0). edg(334,314,0). edg(335,315,0). edg(337,317,0). edg(338,318,0). edg(339,319,0). edg(340,320,0). edg(341,321,0). edg(342,322,0). edg(343,323,0). edg(344,324,0). edg(345,325,0). edg(346,326,0). edg(347,327,0). edg(348,328,0). edg(349,329,0). edg(350,330,0). edg(351,331,0). edg(352,332,0). edg(353,333,0). edg(354,334,0). edg(355,335,0). edg(356,336,0). edg(296,316,0). edg(297,317,0). edg(298,318,0). edg(299,319,0). edg(300,320,0). edg(301,321,0). edg(302,322,0). edg(303,323,0). edg(304,324,0). edg(305,325,0). edg(306,326,0). edg(307,327,0). edg(308,328,0). edg(309,329,0). edg(310,330,0). edg(311,331,0). edg(312,332,0). edg(313,333,0). edg(314,334,0). edg(315,335,0). edg(317,337,0). edg(318,338,0). edg(319,339,0). edg(320,340,0). edg(321,341,0). edg(322,342,0). edg(323,343,0). edg(324,344,0). edg(325,345,0). edg(326,346,0). edg(327,347,0). edg(328,348,0). edg(329,349,0). edg(330,350,0). edg(331,351,0). edg(332,352,0). edg(333,353,0). edg(334,354,0). edg(335,355,0). edg(336,356,0). square(295,296,316,317,0). square(296,297,317,318,0). square(297,298,318,319,0). square(298,299,319,320,0). square(299,300,320,321,0). square(300,301,321,322,0). square(301,302,322,323,0). square(302,303,323,324,0). square(303,304,324,325,0). square(304,305,325,326,0). square(305,306,326,327,0). square(306,307,327,328,0). square(307,308,328,329,0). square(308,309,329,330,0). square(309,310,330,331,0). square(310,311,331,332,0). square(311,312,332,333,0). square(312,313,333,334,0). square(313,314,334,335,0). square(314,315,335,336,0). square(316,317,337,338,0). square(317,318,338,339,0). square(318,319,339,340,0). square(319,320,340,341,0). square(320,321,341,342,0). square(321,322,342,343,0). square(322,323,343,344,0). square(323,324,344,345,0). square(324,325,345,346,0). square(325,326,346,347,0). square(326,327,347,348,0). square(327,328,348,349,0). square(328,329,349,350,0). square(329,330,350,351,0). square(330,331,351,352,0). square(331,332,352,353,0). square(332,333,353,354,0). square(333,334,354,355,0). square(334,335,355,356,0). square(335,336,356,357,0). drei(1,0). drei(2,0). drei(3,0). drei(7,0). drei(8,0). drei(9,0). drei(13,0). drei(14,0). drei(15,0). drei(19,0). drei(20,0). drei(21,0). drei(23,0). drei(29,0). drei(35,0). drei(41,0). drei(44,0). drei(45,0). drei(46,0). drei(47,0). drei(48,0). drei(49,0). drei(50,0). drei(56,0). drei(57,0). drei(58,0). drei(59,0). drei(60,0). drei(61,0). drei(62,0). drei(65,0). drei(68,0). drei(71,0). drei(77,0). drei(80,0). drei(83,0). drei(85,0). drei(86,0). drei(87,0). drei(89,0). drei(91,0). drei(92,0). drei(93,0). drei(97,0). drei(98,0). drei(99,0). drei(101,0). drei(103,0). drei(104,0). drei(105,0). drei(110,0). drei(122,0). drei(131,0). drei(132,0). drei(133,0). drei(134,0). drei(135,0). drei(136,0). drei(137,0). drei(138,0). drei(139,0). drei(140,0). drei(141,0). drei(142,0). drei(143,0). drei(152,0). drei(158,0). drei(164,0). drei(169,0). drei(170,0). drei(171,0). drei(173,0). drei(175,0). drei(176,0). drei(177,0). drei(179,0). drei(181,0). drei(182,0). drei(183,0). drei(185,0). drei(187,0). drei(188,0). drei(189,0). drei(191,0). drei(194,0). drei(197,0). drei(200,0). drei(203,0). drei(206,0). drei(209,0). drei(212,0). drei(213,0). drei(214,0). drei(215,0). drei(216,0). drei(217,0). drei(218,0). drei(221,0). drei(224,0). drei(225,0). drei(226,0). drei(227,0). drei(228,0). drei(229,0). drei(230,0). drei(233,0). drei(239,0). drei(242,0). drei(245,0). drei(251,0). drei(253,0). drei(254,0). drei(255,0). drei(259,0). drei(260,0). drei(261,0). drei(263,0). drei(265,0). drei(266,0). drei(267,0). drei(271,0). drei(272,0). drei(273,0). drei(284,0). bi(1,0). bi(2,0). bi(3,0). bi(7,0). bi(8,0). bi(9,0). bi(13,0). bi(14,0). bi(15,0). bi(19,0). bi(20,0). bi(21,0). bi(23,0). bi(29,0). bi(35,0). bi(41,0). bi(44,0). bi(45,0). bi(46,0). bi(47,0). bi(48,0). bi(49,0). bi(50,0). bi(56,0). bi(57,0). bi(58,0). bi(59,0). bi(60,0). bi(61,0). bi(62,0). bi(65,0). bi(68,0). bi(71,0). bi(77,0). bi(80,0). bi(83,0). bi(85,0). bi(86,0). bi(87,0). bi(89,0). bi(91,0). bi(92,0). bi(93,0). bi(97,0). bi(98,0). bi(99,0). bi(101,0). bi(103,0). bi(104,0). bi(105,0). bi(110,0). bi(122,0). bi(131,0). bi(132,0). bi(133,0). bi(134,0). bi(135,0). bi(136,0). bi(137,0). bi(138,0). bi(139,0). bi(140,0). bi(141,0). bi(142,0). bi(143,0). bi(152,0). bi(158,0). bi(164,0). bi(169,0). bi(170,0). bi(171,0). bi(173,0). bi(175,0). bi(176,0). bi(177,0). bi(179,0). bi(181,0). bi(182,0). bi(183,0). bi(185,0). bi(187,0). bi(188,0). bi(189,0). bi(191,0). bi(194,0). bi(197,0). bi(200,0). bi(203,0). bi(206,0). bi(209,0). bi(212,0). bi(213,0). bi(214,0). bi(215,0). bi(216,0). bi(217,0). bi(218,0). bi(221,0). bi(224,0). bi(225,0). bi(226,0). bi(227,0). bi(228,0). bi(229,0). bi(230,0). bi(233,0). bi(239,0). bi(242,0). bi(245,0). bi(251,0). bi(253,0). bi(254,0). bi(255,0). bi(259,0). bi(260,0). bi(261,0). bi(263,0). bi(265,0). bi(266,0). bi(267,0). bi(271,0). bi(272,0). bi(273,0). bi(284,0). line(1,2,0). line(2,3,0). line(7,8,0). line(8,9,0). line(13,14,0). line(14,15,0). line(19,20,0). line(20,21,0). line(2,23,0). line(8,29,0). line(14,35,0). line(20,41,0). line(23,44,0). line(44,45,0). line(45,46,0). line(46,47,0). line(47,48,0). line(48,49,0). line(49,50,0). line(29,50,0). line(35,56,0). line(56,57,0). line(57,58,0). line(58,59,0). line(59,60,0). line(60,61,0). line(61,62,0). line(41,62,0). line(44,65,0). line(47,68,0). line(50,71,0). line(56,77,0). line(59,80,0). line(62,83,0). line(85,86,0). line(65,86,0). line(86,87,0). line(68,89,0). line(91,92,0). line(71,92,0). line(92,93,0). line(97,98,0). line(77,98,0). line(98,99,0). line(80,101,0). line(103,104,0). line(83,104,0). line(104,105,0). line(89,110,0). line(101,122,0). line(110,131,0). line(131,132,0). line(132,133,0). line(133,134,0). line(134,135,0). line(135,136,0). line(136,137,0). line(137,138,0). line(138,139,0). line(139,140,0). line(140,141,0). line(141,142,0). line(142,143,0). line(122,143,0). line(131,152,0). line(137,158,0). line(143,164,0). line(169,170,0). line(170,171,0). line(152,173,0). line(175,176,0). line(176,177,0). line(158,179,0). line(181,182,0). line(182,183,0). line(164,185,0). line(187,188,0). line(188,189,0). line(170,191,0). line(173,194,0). line(176,197,0). line(179,200,0). line(182,203,0). line(185,206,0). line(188,209,0). line(191,212,0). line(212,213,0). line(213,214,0). line(214,215,0). line(194,215,0). line(215,216,0). line(216,217,0). line(217,218,0). line(197,218,0). line(200,221,0). line(203,224,0). line(224,225,0). line(225,226,0). line(226,227,0). line(206,227,0). line(227,228,0). line(228,229,0). line(229,230,0). line(209,230,0). line(212,233,0). line(218,239,0). line(221,242,0). line(224,245,0). line(230,251,0). line(253,254,0). line(233,254,0). line(254,255,0). line(259,260,0). line(239,260,0). line(260,261,0). line(242,263,0). line(265,266,0). line(245,266,0). line(266,267,0). line(271,272,0). line(251,272,0). line(272,273,0). line(263,284,0).
----------------------------------------------------------------------------|
SATISFIABLE

Models       : 1
Calls        : 1
Time         : 0.023s (Solving: 0.00s 1st Model: 0.00s Unsat: 0.00s)
CPU Time     : 0.023s
